50

99 47 297
99 19 297
96 35 288
96 18 299
92 34 295
92 18 300
91 42 283
88 41 275
87 15 295
86 13 292
85 3 258
76 20 238
74 8 282
72 32 261
69 23 218
67 34 255
67 11 255
62 31 264
61 14 263
56 4 264
52 9 196
51 1 202
49 3 285
46 7 295
44 8 259
42 15 284
40 2 182
40 16 280
33 14 250
33 11 223
30 14 284
30 15 277
29 4 283
28 12 225
28 13 237
27 11 186
25 3 105
24 10 284
23 12 297
22 3 197
21 1 126
20 8 148
17 7 192
14 2 261
13 6 98
11 2 37
10 5 161
7 2 234
7 1 246
3 2 191
